========================================================== 
File name: C:\DEGR\assets\definitions\MSRCPSP_Gen\100_20_64_10_D.def
Creation date: Wed May 03 10:39:05 CEST 2023
Website: http://imopse.ii.pwr.edu.pl/ 
Reference: 
Myszkowski P. B., Skowronski M. E., Olech L., Oslizlo K., 
Hybrid Ant Colony Optimization in solving Multi-Skill Resource-Constrained Project Scheduling Problem, 
Soft Computing, DOI: DOI 10.1007/s00500-014-1455-x 
========================================================== 
General characteristics: 
Tasks: 100
Resources: 20
Precedence relations: 61
Number of skill types: 10
========================================================== 
ResourceID 	 Salary 	 Skills 
1	 	 	66.9	 	 Q7: 0 	  Q3: 0 	  Q5: 3 	  Q4: 3 	  Q9: 3 	  Q1: 3 	 
2	 	 	71.4	 	 Q8: 0 	  Q2: 2 	 
3	 	 	82.7	 	 Q2: 1 	  Q5: 1 	  Q8: 1 	  Q3: 0 	  Q0: 2 	  Q4: 0 	 
4	 	 	51.3	 	 Q2: 2 	  Q9: 3 	 
5	 	 	30.5	 	 Q5: 1 	  Q8: 1 	  Q2: 1 	  Q7: 3 	 
6	 	 	22.1	 	 Q1: 1 	  Q3: 0 	 
7	 	 	42.9	 	 Q5: 3 	  Q4: 0 	  Q2: 1 	  Q8: 0 	  Q0: 2 	  Q3: 0 	  Q1: 3 	  Q7: 1 	 
8	 	 	83.8	 	 Q3: 0 	  Q9: 1 	  Q0: 2 	 
9	 	 	99.7	 	 Q8: 1 	  Q5: 2 	  Q9: 2 	  Q4: 0 	  Q0: 0 	 
10	 	 	52.4	 	 Q9: 1 	  Q1: 2 	  Q3: 0 	  Q7: 3 	  Q0: 2 	  Q8: 3 	  Q2: 3 	 
11	 	 	77.9	 	 Q8: 0 	  Q9: 3 	  Q7: 3 	  Q3: 3 	  Q5: 0 	  Q4: 2 	  Q0: 0 	  Q2: 1 	 
12	 	 	76.3	 	 Q6: 1 	  Q7: 0 	  Q1: 0 	  Q3: 1 	  Q0: 2 	  Q9: 0 	 
13	 	 	89.7	 	 Q5: 2 	 
14	 	 	57.0	 	 Q9: 3 	  Q2: 0 	 
15	 	 	64.2	 	 Q3: 2 	  Q6: 3 	  Q4: 0 	  Q9: 1 	  Q7: 3 	  Q8: 2 	  Q0: 2 	 
16	 	 	53.8	 	 Q9: 1 	  Q0: 1 	  Q7: 0 	  Q3: 3 	 
17	 	 	56.0	 	 Q8: 3 	  Q1: 2 	  Q6: 0 	 
18	 	 	67.5	 	 Q1: 0 	  Q4: 2 	  Q7: 1 	  Q9: 1 	  Q8: 2 	  Q3: 2 	  Q5: 0 	  Q0: 3 	 
19	 	 	90.4	 	 Q2: 2 	  Q6: 1 	  Q1: 0 	  Q0: 0 	  Q5: 3 	  Q8: 1 	  Q7: 0 	 
20	 	 	10.8	 	 Q1: 0 	  Q6: 0 	  Q8: 3 	  Q0: 2 	 
========================================================== 
TaskID 	 Duration 	 Skill 	 Predecessor IDs 
1	29	Q9:	3
2	21	Q1:	3
3	31	Q1:	0
4	17	Q9:	3
5	27	Q8:	2
6	32	Q1:	3
7	10	Q0:	3
8	30	Q3:	2
9	10	Q6:	3
10	17	Q1:	3
11	33	Q5:	3
12	40	Q6:	0
13	13	Q1:	1	3
14	13	Q6:	0
15	32	Q9:	2
16	17	Q5:	3
17	38	Q8:	0
18	25	Q8:	1
19	18	Q1:	1	4	8	1
20	27	Q8:	2	8
21	23	Q4:	2
22	30	Q0:	2
23	15	Q1:	2
24	11	Q1:	3
25	29	Q1:	2	24
26	39	Q6:	0
27	18	Q1:	3
28	37	Q0:	2	26
29	31	Q1:	1
30	15	Q4:	2
31	11	Q0:	1	29
32	35	Q3:	2
33	33	Q3:	1	25
34	12	Q7:	1
35	29	Q8:	2
36	20	Q4:	2
37	30	Q2:	0	10
38	20	Q3:	1	16
39	34	Q8:	1	24
40	24	Q7:	0
41	11	Q6:	1	37
42	34	Q8:	0
43	31	Q1:	2
44	19	Q4:	3	35
45	29	Q3:	2	22
46	18	Q2:	2	18
47	29	Q6:	0	35	43
48	9	Q8:	2
49	18	Q8:	1
50	17	Q7:	0
51	9	Q7:	1	29
52	10	Q5:	1
53	37	Q7:	1
54	39	Q1:	0	2
55	31	Q4:	0
56	40	Q2:	0
57	30	Q4:	0	18	41
58	24	Q7:	1
59	20	Q7:	3	48
60	16	Q5:	0
61	26	Q5:	3
62	21	Q7:	0	56
63	38	Q7:	1	27
64	24	Q6:	1	1
65	18	Q4:	3	19
66	37	Q7:	3
67	13	Q1:	2	64
68	26	Q4:	0
69	37	Q6:	1	2	41
70	35	Q1:	2	37
71	22	Q3:	1
72	20	Q2:	0	7
73	23	Q9:	1	70	64
74	39	Q2:	0	14
75	39	Q0:	3
76	39	Q5:	0	2	25
77	35	Q9:	0	31
78	29	Q2:	3
79	32	Q8:	3
80	38	Q6:	0	41	63
81	35	Q6:	0	63
82	14	Q5:	3
83	39	Q8:	0	62
84	30	Q3:	1	18	14	21
85	14	Q3:	2
86	31	Q7:	3	49	5
87	37	Q0:	3
88	10	Q6:	0	15	76
89	17	Q4:	2	80
90	26	Q9:	3	70	16
91	20	Q6:	1	23
92	28	Q9:	1	69
93	25	Q8:	2
94	12	Q1:	1	29	59	88
95	37	Q3:	2
96	12	Q6:	0	31
97	10	Q5:	3	42
98	28	Q2:	1
99	15	Q2:	2	38	68
100	21	Q3:	2
========================================================== 